#p external='/home/rxn_grp/programs/xtb-gaussian'  /sdd opt(nomicro)

R

0 1
Zr 0.0 0.0 0.0
Cl 0.0 0.0 -2.77
Cl 2.77 0.0 0.0
N 0.0016871028077241116 0.033012024592139824 2.459777908656886
C 1.0777326098246411 0.8648696576516259 2.4681530951318966
C 0.9647516897724403 2.324712438447319 1.9847946414849402
C 0.017127801603981675 2.7202927295384134 0.8467038604194792
C 0.288649365054915 3.2984275004891392 -0.3928439334566891
C -0.9693501837550503 3.091563588240965 -1.1743599373927471
C -1.9486030261500584 2.646409232794528 -0.33288072883410996
C -1.4450664481289723 2.7464757174300694 1.031493784577448
C 2.2970780990271984 0.42363376205953807 2.9827444673677035
C 2.429719183425778 -0.9056805409967892 3.3833279062474917
C 1.3529946362879268 -1.7760954326006821 3.2411294166796645
C 0.15212179979181076 -1.273083702374422 2.754894952195341
C -1.0020536263393691 -2.171457638353938 2.362808333734509
C -0.9709326889355232 -2.5063910022082108 0.8998674906347452
C 0.188531671461775 -3.376694068475202 0.339004755241453
C 0.027673084756042885 -3.2752204853711575 -1.0101290960162967
C -1.356435850025572 -2.7980245419623984 -1.2652240268951287
C -2.002775993776693 -2.4857641044686507 -0.10589146230865254
H 0.7059231435967429 2.931514028198678 2.8610043666021383
H 1.9719854005191322 2.63903558562113 1.6779408634679114
H 1.2768699798695102 3.4191295894567513 -0.8214583952653219
H -0.9953907118302949 3.0403673602053347 -2.2530103433607764
H -2.902671864919454 2.212367455749475 -0.6072724725801785
H -1.9060461076559851 2.1852327088078773 1.855787345320179
H 3.14620712155111 1.09554614375397 3.059668327022544
H 3.3812967431875185 -1.268649395977974 3.762987983330722
H 1.4696464649204286 -2.830709442067618 3.46675670953267
H -0.9577712013024369 -3.1024139054819324 2.9412809286622887
H -1.9430812272975588 -1.6793583591531014 2.6345794916073406
H 1.083406976919523 -3.6340594772622 0.8816115768355636
H 0.7390740286203022 -3.525797500707049 -1.7771289202766285
H -1.7777879007586124 -2.7244895104877322 -2.2541657640996755
H -2.9953350048437124 -2.0780711330715045 0.008985905683251328


