#p external='/home/rxn_grp/programs/xtb-gaussian'  /sdd opt(nomicro)

R

0 1
Zr 0.0 0.0 0.0
Cl 0.0 0.0 -2.216
Cl 2.216 0.0 0.0
N 0.10076920314769734 0.04492909095448577 1.9649048181738933
C 0.9183437530445411 1.0400959165850623 2.461262905138827
C 0.4764486777266123 2.3994961990590267 2.0701288029999314
C -0.42043046095303643 2.1962129947579223 0.9296963513445172
C -1.6695253833301493 1.7010828783248504 0.8520980618807075
C -2.10146600987989 1.7855226947939917 -0.523003704910437
C -1.1513088740217376 2.3901345867543706 -1.2533748004660688
C -0.07043358800406635 2.6845832469255977 -0.3623005602521712
C 1.9632381282650544 0.8969740890077175 3.3776451526261484
C 2.1589128060012257 -0.33889354685321044 3.9634186212748115
C 1.254125043092027 -1.3443607928491548 3.678047383893503
C 0.24615440233262392 -1.087308108964999 2.7456417856184308
C -0.7769847899813627 -2.102381253212963 2.4239771877418232
C -0.8083334503852863 -2.0258417194333043 0.9622735371213066
C 0.18803708953552292 -2.6822440178659033 0.1681152111485177
C -0.31952998616373995 -2.697507637521797 -1.0680068558499294
C -1.6335736851753628 -2.0732797319999197 -1.0646278999892553
C -1.9398007833996862 -1.660977949351758 0.17216116584585364
H -0.059040344933302825 2.8717353219130684 2.9027351717420995
H 1.3317946261339488 3.0358562916563274 1.8174064105448282
H -2.2607882263243395 1.30449194108436 1.6602442748712614
H -3.066237182354748 1.4586091416342353 -0.8792184469576153
H -1.1975350239964364 2.6468372005522265 -2.3002085526968647
H 0.7684159129223994 3.317018303851632 -0.605586897486378
H 2.5760785190475377 1.7466209935170744 3.6581719678967697
H 2.9642900622375827 -0.49762997138955084 4.67217895326801
H 1.334178585260554 -2.3128793718926692 4.158942042434285
H -1.7350332882628885 -1.8306457727853895 2.8801500237330737
H -0.5035402752535545 -3.1030646929434136 2.7767271137955283
H 1.1141809425606939 -3.117658555736369 0.5018214069108898
H 0.1254800798353936 -3.1586897134282825 -1.9386182294822194
H -2.273141795734439 -2.019950896711858 -1.9339005663790576
H -2.858134900495069 -1.217835577643879 0.5116360793072022


