! XTB2 opt

*xyz 0 1
Zr 0.0 0.0 0.0
Cl 0.0 0.0 -2.493
Cl 2.493 0.0 0.0
N -0.06419695042341801 -0.050066637045534934 2.212502674215623
C -1.0182045159255104 0.5293570641995133 2.9773348334792806
C -1.8810300693978468 1.5556709814182113 2.290672761649623
C -1.281583022578624 2.0530986798768103 1.02175117991238
C -0.13070538952575 2.73585912292255 0.8901275848586062
C 0.02520206064362891 3.169041902643348 -0.4820109996627583
C -1.0474240074802375 2.7899893905597244 -1.1935610128108436
C -1.9144929013946232 2.0892764868689184 -0.27752563652363266
C -1.3010912314625769 0.10055779680965801 4.267321701061158
C -0.60821348364341 -0.9981031799647517 4.769237647154554
C 0.3077224977048583 -1.6635057727775295 3.9570453031590045
C 0.5399765449378976 -1.1686714188701572 2.678137870626804
C 1.161953163485898 -2.0252123538901117 1.59746343573306
C 0.10211605157648429 -2.488639891611563 0.6505446291536163
C -1.3140806626671562 -2.481449251138657 0.9621208769653504
C -1.960702637751542 -2.536127129609482 -0.20766070332115055
C -0.9964693107715789 -2.7205927964284182 -1.274479831661935
C 0.2478975056136772 -2.7320376050622235 -0.7654211555803097
H -2.0510131822731292 2.402532096341933 2.9677096529814606
H -2.859605791800251 1.10386557334436 2.08737974714227
H 0.5701322742054504 2.9697561166793247 1.676688422361136
H 0.8623485892417546 3.7454768983617877 -0.8456377657223364
H -1.2501318041284093 2.990198830541537 -2.2329233030976066
H -2.8681694020543467 1.6587201578410993 -0.5298588433570409
H -2.077258181116838 0.5790968358784122 4.854803556663309
H -0.8390789947999243 -1.3801650181132135 5.759463581609737
H 0.7531108274464253 -2.596572237735607 4.284620395383203
H 1.6890824407488836 -2.882414279914104 2.029908197513812
H 1.9007184026345534 -1.422727320192597 1.0568772409844591
H -1.7720260696758137 -2.4245376080812053 1.935225691442531
H -3.031207839953617 -2.562791186555253 -0.3467494414267416
H -1.2670099744649463 -2.896856331263063 -2.3051949585645226
H 1.1698793829790068 -2.8917313553261645 -1.2973782826450277
*