! XTB2 opt

*xyz 0 1
Rh 0.0 0.0 0.0
C -0.31254371277976717 1.142444338023903 3.7765369064760703
C 0.6672930504021346 0.46952280813448993 2.8123557837199304
C 0.002508501675937237 0.021006082978267924 1.52585335202871
O -0.8641632104638051 -0.8380723912542262 1.5605708639501459
H -0.8082023189119462 2.0094340832955995 3.29103663126867
H 0.23721402494073088 1.5120407078967926 4.67046483387307
H -1.0833034706443234 0.4205861237427933 4.121577209840093
H 1.4743039649807443 1.1906443643238387 2.5652130032263494
H 1.130122020928179 -0.4038357282067846 3.3217169953770336
C -0.0001584835974515559 0.0 -1.5290405936192368
O -0.013294370967407706 -0.007367590289375156 -2.686092937795506
C 0.00012157775142467639 1.5292639628272044 -0.00011514195962307313
O 0.010603856256288959 2.6863228267422716 -0.010146175433231222
H 0.0 -1.2109999999999999 0.0
C 1.5292680440028497 0.0 0.00016884986610307947
O 2.6863269536043624 0.0009218657514197005 0.014647291088554651
H -1.2109999999999999 0.0 0.0
*