! XTB2 opt

*xyz 0 1
Zr 0.0 0.0 0.0
Cl 0.0 0.0 -1.939
Cl 1.939 0.0 0.0
N 0.647779 -0.001854 1.595514
C 0.903689 1.072795 2.437031
C 0.820926 2.414743 1.800507
C -0.20242 2.141206 0.775293
C -1.437294 1.639369 0.957568
C -2.04478 1.499104 -0.332357
C -1.167957 1.86466 -1.280693
C 0.05012 2.226805 -0.622838
C 1.262905 1.076699 3.779653
C 1.449383 -0.088842 4.484989
C 1.378164 -1.208126 3.676046
C 1.022604 -1.122011 2.344144
C 1.064415 -2.394857 1.574442
C -0.048356 -2.14315 0.63011
C -1.366955 -1.721091 1.053458
C -2.041888 -1.566733 -0.084875
C -1.16813 -1.876491 -1.205638
C 0.061906 -2.187678 -0.781885
H 1.781668 2.688988 1.343921
H 0.539137 3.193499 2.51187
H -1.954136 1.509097 1.909054
H -3.084006 1.22924 -0.489346
H -1.386581 2.026987 -2.326753
H 0.952699 2.606483 -1.095013
H 1.371561 2.040295 4.253723
H 1.664006 -0.125084 5.537291
H 1.593737 -2.19122 4.065414
H 0.922292 -3.266645 2.218677
H 2.021663 -2.509745 1.048534
H -1.707358 -1.667307 2.08251
H -3.097327 -1.3483 -0.207916
H -1.557476 -1.93277 -2.216848
H 0.926325 -2.51522 -1.348294
*