! XTB2 opt

*xyz 0 1
Zr 0.0 0.0 0.0
Cl 0.0 0.0 -1.939
Cl 1.939 0.0 0.0
N 0.072865 0.17327 1.733716
C 0.179756 1.097684 2.734532
C 0.034019 2.471136 2.221444
C -0.62114 2.187534 0.91927
C -1.881443 1.787642 0.675166
C -2.162764 1.906637 -0.74014
C -1.100459 2.439413 -1.363103
C -0.101646 2.665719 -0.345252
C 0.362026 0.843211 4.083093
C 0.475597 -0.459236 4.533849
C 0.470058 -1.43195 3.554935
C 0.296248 -1.073861 2.222789
C 0.496993 -2.117209 1.204242
C -0.048824 -1.567902 -0.255698
C -0.105952 -2.941618 -0.710856
C -1.298399 -3.378567 -0.27766
C -2.130191 -2.247911 0.112906
C -1.438742 -1.12925 -0.152995
H 1.013682 2.939515 2.076964
H -0.565479 3.105959 2.879606
H -2.626047 1.502181 1.419449
H -3.117505 1.652236 -1.182845
H -0.995394 2.699919 -2.401747
H 0.86543 3.133204 -0.496474
H 0.409284 1.681349 4.75994
H 0.601575 -0.697586 5.577191
H 0.617757 -2.473453 3.79638
H 1.575387 -2.293811 1.076744
H 0.049814 -3.052943 1.561027
H 0.733251 -3.522612 -1.056382
H -1.67453 -4.388918 -0.333618
H -3.190159 -2.343878 0.308082
H -1.96039 -0.167902 -0.069609
*